unsat
(:binary-propagations  75
 :conflicts            1
 :final-checks         1
 :max-generation       1
 :max-memory           29.91
 :memory               22.69
 :mk-bool-var          5172
 :mk-clause            1771
 :mk-clause-binary     6690
 :num-allocs           141025836
 :num-checks           1
 :propagations         75
 :quant-instantiations 962
 :restarts             1
 :rlimit-count         712870
 :time                 0.19)
